
%FILE DATA:	Soccer Computational Problem for MiniZinc Models	%
%AUTHOR:	Jack Wall	%
%CONTACT:  	116397063@umail.ucc.ie			%
%LAST UPDATE:	02/27/2020, 19:27:34						%
%DESCRIPTION: 	88 games played with 22 games left				%


n=11; %number of teams

%Games to play
games=[|6,2|9,2|1,6|4,10|10,2|3,4|1,9|6,4|5,10|11,1|10,3|2,6|1,2|9,3|3,7|5,1|4,1|11,7|2,9|3,9|9,10|2,1|];

%Initial points
iPoints=[12,16,31,24,32,21,22,24,21,20,15];

%POSITION CONSTRAINTS
% [|teamID, operator, position|...]
% operators index:
%  1 for =  operator
%  2 for >  operator
%  3 for >= operator
%  4 for <  operator
%  5 for <= operator
positionConstraints=[|5,3,1|3,3,2|4,3,3|];